(set-info :smt-lib-version 2.6)
(set-logic QF_NIA)
(set-info :source |
 more info in 'N. P. Lopes, L. Aksoy, V. Manquinho, J. Monteiro.
 Optimally Solving the MCM Problem Using Pseudo-Boolean Satisfiability.
 Technical Report RT/43/2010, INESC-ID, Nov. 2010'. |)
(set-info :category "industrial")
(set-info :status sat)
(declare-fun X7 () Int)
(declare-fun X8 () Int)
(declare-fun X9 () Int)
(declare-fun X10 () Int)
(declare-fun X11 () Int)
(declare-fun S0 () Int)
(declare-fun S1 () Int)
(declare-fun S2 () Int)
(declare-fun S3 () Int)
(declare-fun S4 () Int)
(declare-fun S5 () Int)
(declare-fun S6 () Int)
(declare-fun S7 () Int)
(declare-fun S8 () Int)
(declare-fun S9 () Int)
(define-fun power2 ((x Int)) Bool
  (or (= x 1024) (= x 512) (= x 256) (= x 128) (= x 64) (= x 32) (= x 16) (= x 8) (= x 4) (= x 2) (= x 1)))
(assert (or
 (= X7 (+ S0 S1))
 (= X7 (- S0 S1))
 (= X7 (+ (* 17 S0) S1))
 (= X7 (- (* 17 S0) S1))
 (= X7 (- S0 (* 17 S1)))
 (= X7 (+ (* 17 S0) (* 17 S1)))
 (= X7 (- (* 17 S0) (* 17 S1)))
 (= X7 (+ (* 17 S0) (* 5 S1)))
 (= X7 (- (* 17 S0) (* 5 S1)))
 (= X7 (- (* 5 S0) (* 17 S1)))
 (= X7 (+ (* 17 S0) (* 1019 S1)))
 (= X7 (- (* 17 S0) (* 1019 S1)))
 (= X7 (- (* 1019 S0) (* 17 S1)))
 (= X7 (+ (* 17 S0) (* 41 S1)))
 (= X7 (- (* 17 S0) (* 41 S1)))
 (= X7 (- (* 41 S0) (* 17 S1)))
 (= X7 (+ (* 17 S0) (* 527 S1)))
 (= X7 (- (* 17 S0) (* 527 S1)))
 (= X7 (- (* 527 S0) (* 17 S1)))
 (= X7 (+ (* 17 S0) (* 51 S1)))
 (= X7 (- (* 17 S0) (* 51 S1)))
 (= X7 (- (* 51 S0) (* 17 S1)))
 (= X7 (+ (* 17 S0) (* 95 S1)))
 (= X7 (- (* 17 S0) (* 95 S1)))
 (= X7 (- (* 95 S0) (* 17 S1)))
 (= X7 (+ (* 5 S0) S1))
 (= X7 (- (* 5 S0) S1))
 (= X7 (- S0 (* 5 S1)))
 (= X7 (+ (* 5 S0) (* 5 S1)))
 (= X7 (- (* 5 S0) (* 5 S1)))
 (= X7 (+ (* 5 S0) (* 1019 S1)))
 (= X7 (- (* 5 S0) (* 1019 S1)))
 (= X7 (- (* 1019 S0) (* 5 S1)))
 (= X7 (+ (* 5 S0) (* 41 S1)))
 (= X7 (- (* 5 S0) (* 41 S1)))
 (= X7 (- (* 41 S0) (* 5 S1)))
 (= X7 (+ (* 5 S0) (* 527 S1)))
 (= X7 (- (* 5 S0) (* 527 S1)))
 (= X7 (- (* 527 S0) (* 5 S1)))
 (= X7 (+ (* 5 S0) (* 51 S1)))
 (= X7 (- (* 5 S0) (* 51 S1)))
 (= X7 (- (* 51 S0) (* 5 S1)))
 (= X7 (+ (* 5 S0) (* 95 S1)))
 (= X7 (- (* 5 S0) (* 95 S1)))
 (= X7 (- (* 95 S0) (* 5 S1)))
 (= X7 (+ (* 1019 S0) S1))
 (= X7 (- (* 1019 S0) S1))
 (= X7 (- S0 (* 1019 S1)))
 (= X7 (+ (* 1019 S0) (* 1019 S1)))
 (= X7 (- (* 1019 S0) (* 1019 S1)))
 (= X7 (+ (* 1019 S0) (* 41 S1)))
 (= X7 (- (* 1019 S0) (* 41 S1)))
 (= X7 (- (* 41 S0) (* 1019 S1)))
 (= X7 (+ (* 1019 S0) (* 527 S1)))
 (= X7 (- (* 1019 S0) (* 527 S1)))
 (= X7 (- (* 527 S0) (* 1019 S1)))
 (= X7 (+ (* 1019 S0) (* 51 S1)))
 (= X7 (- (* 1019 S0) (* 51 S1)))
 (= X7 (- (* 51 S0) (* 1019 S1)))
 (= X7 (+ (* 1019 S0) (* 95 S1)))
 (= X7 (- (* 1019 S0) (* 95 S1)))
 (= X7 (- (* 95 S0) (* 1019 S1)))
 (= X7 (+ (* 41 S0) S1))
 (= X7 (- (* 41 S0) S1))
 (= X7 (- S0 (* 41 S1)))
 (= X7 (+ (* 41 S0) (* 41 S1)))
 (= X7 (- (* 41 S0) (* 41 S1)))
 (= X7 (+ (* 41 S0) (* 527 S1)))
 (= X7 (- (* 41 S0) (* 527 S1)))
 (= X7 (- (* 527 S0) (* 41 S1)))
 (= X7 (+ (* 41 S0) (* 51 S1)))
 (= X7 (- (* 41 S0) (* 51 S1)))
 (= X7 (- (* 51 S0) (* 41 S1)))
 (= X7 (+ (* 41 S0) (* 95 S1)))
 (= X7 (- (* 41 S0) (* 95 S1)))
 (= X7 (- (* 95 S0) (* 41 S1)))
 (= X7 (+ (* 527 S0) S1))
 (= X7 (- (* 527 S0) S1))
 (= X7 (- S0 (* 527 S1)))
 (= X7 (+ (* 527 S0) (* 527 S1)))
 (= X7 (- (* 527 S0) (* 527 S1)))
 (= X7 (+ (* 527 S0) (* 51 S1)))
 (= X7 (- (* 527 S0) (* 51 S1)))
 (= X7 (- (* 51 S0) (* 527 S1)))
 (= X7 (+ (* 527 S0) (* 95 S1)))
 (= X7 (- (* 527 S0) (* 95 S1)))
 (= X7 (- (* 95 S0) (* 527 S1)))
 (= X7 (+ (* 51 S0) S1))
 (= X7 (- (* 51 S0) S1))
 (= X7 (- S0 (* 51 S1)))
 (= X7 (+ (* 51 S0) (* 51 S1)))
 (= X7 (- (* 51 S0) (* 51 S1)))
 (= X7 (+ (* 51 S0) (* 95 S1)))
 (= X7 (- (* 51 S0) (* 95 S1)))
 (= X7 (- (* 95 S0) (* 51 S1)))
 (= X7 (+ (* 95 S0) S1))
 (= X7 (- (* 95 S0) S1))
 (= X7 (- S0 (* 95 S1)))
 (= X7 (+ (* 95 S0) (* 95 S1)))
 (= X7 (- (* 95 S0) (* 95 S1)))
))
(assert (and (> X7 0) (< X7 2048) (power2 S0) (power2 S1)))
(assert (or
 (= X8 (+ S2 S3))
 (= X8 (- S2 S3))
 (= X8 (+ (* 17 S2) S3))
 (= X8 (- (* 17 S2) S3))
 (= X8 (- S2 (* 17 S3)))
 (= X8 (+ (* 17 S2) (* 17 S3)))
 (= X8 (- (* 17 S2) (* 17 S3)))
 (= X8 (+ (* 17 S2) (* 5 S3)))
 (= X8 (- (* 17 S2) (* 5 S3)))
 (= X8 (- (* 5 S2) (* 17 S3)))
 (= X8 (+ (* 17 S2) (* 1019 S3)))
 (= X8 (- (* 17 S2) (* 1019 S3)))
 (= X8 (- (* 1019 S2) (* 17 S3)))
 (= X8 (+ (* 17 S2) (* 41 S3)))
 (= X8 (- (* 17 S2) (* 41 S3)))
 (= X8 (- (* 41 S2) (* 17 S3)))
 (= X8 (+ (* 17 S2) (* 527 S3)))
 (= X8 (- (* 17 S2) (* 527 S3)))
 (= X8 (- (* 527 S2) (* 17 S3)))
 (= X8 (+ (* 17 S2) (* 51 S3)))
 (= X8 (- (* 17 S2) (* 51 S3)))
 (= X8 (- (* 51 S2) (* 17 S3)))
 (= X8 (+ (* 17 S2) (* 95 S3)))
 (= X8 (- (* 17 S2) (* 95 S3)))
 (= X8 (- (* 95 S2) (* 17 S3)))
 (= X8 (+ (* 17 S2) (* X7 S3)))
 (= X8 (- (* 17 S2) (* X7 S3)))
 (= X8 (- (* X7 S2) (* 17 S3)))
 (= X8 (+ (* 5 S2) S3))
 (= X8 (- (* 5 S2) S3))
 (= X8 (- S2 (* 5 S3)))
 (= X8 (+ (* 5 S2) (* 5 S3)))
 (= X8 (- (* 5 S2) (* 5 S3)))
 (= X8 (+ (* 5 S2) (* 1019 S3)))
 (= X8 (- (* 5 S2) (* 1019 S3)))
 (= X8 (- (* 1019 S2) (* 5 S3)))
 (= X8 (+ (* 5 S2) (* 41 S3)))
 (= X8 (- (* 5 S2) (* 41 S3)))
 (= X8 (- (* 41 S2) (* 5 S3)))
 (= X8 (+ (* 5 S2) (* 527 S3)))
 (= X8 (- (* 5 S2) (* 527 S3)))
 (= X8 (- (* 527 S2) (* 5 S3)))
 (= X8 (+ (* 5 S2) (* 51 S3)))
 (= X8 (- (* 5 S2) (* 51 S3)))
 (= X8 (- (* 51 S2) (* 5 S3)))
 (= X8 (+ (* 5 S2) (* 95 S3)))
 (= X8 (- (* 5 S2) (* 95 S3)))
 (= X8 (- (* 95 S2) (* 5 S3)))
 (= X8 (+ (* 5 S2) (* X7 S3)))
 (= X8 (- (* 5 S2) (* X7 S3)))
 (= X8 (- (* X7 S2) (* 5 S3)))
 (= X8 (+ (* 1019 S2) S3))
 (= X8 (- (* 1019 S2) S3))
 (= X8 (- S2 (* 1019 S3)))
 (= X8 (+ (* 1019 S2) (* 1019 S3)))
 (= X8 (- (* 1019 S2) (* 1019 S3)))
 (= X8 (+ (* 1019 S2) (* 41 S3)))
 (= X8 (- (* 1019 S2) (* 41 S3)))
 (= X8 (- (* 41 S2) (* 1019 S3)))
 (= X8 (+ (* 1019 S2) (* 527 S3)))
 (= X8 (- (* 1019 S2) (* 527 S3)))
 (= X8 (- (* 527 S2) (* 1019 S3)))
 (= X8 (+ (* 1019 S2) (* 51 S3)))
 (= X8 (- (* 1019 S2) (* 51 S3)))
 (= X8 (- (* 51 S2) (* 1019 S3)))
 (= X8 (+ (* 1019 S2) (* 95 S3)))
 (= X8 (- (* 1019 S2) (* 95 S3)))
 (= X8 (- (* 95 S2) (* 1019 S3)))
 (= X8 (+ (* 1019 S2) (* X7 S3)))
 (= X8 (- (* 1019 S2) (* X7 S3)))
 (= X8 (- (* X7 S2) (* 1019 S3)))
 (= X8 (+ (* 41 S2) S3))
 (= X8 (- (* 41 S2) S3))
 (= X8 (- S2 (* 41 S3)))
 (= X8 (+ (* 41 S2) (* 41 S3)))
 (= X8 (- (* 41 S2) (* 41 S3)))
 (= X8 (+ (* 41 S2) (* 527 S3)))
 (= X8 (- (* 41 S2) (* 527 S3)))
 (= X8 (- (* 527 S2) (* 41 S3)))
 (= X8 (+ (* 41 S2) (* 51 S3)))
 (= X8 (- (* 41 S2) (* 51 S3)))
 (= X8 (- (* 51 S2) (* 41 S3)))
 (= X8 (+ (* 41 S2) (* 95 S3)))
 (= X8 (- (* 41 S2) (* 95 S3)))
 (= X8 (- (* 95 S2) (* 41 S3)))
 (= X8 (+ (* 41 S2) (* X7 S3)))
 (= X8 (- (* 41 S2) (* X7 S3)))
 (= X8 (- (* X7 S2) (* 41 S3)))
 (= X8 (+ (* 527 S2) S3))
 (= X8 (- (* 527 S2) S3))
 (= X8 (- S2 (* 527 S3)))
 (= X8 (+ (* 527 S2) (* 527 S3)))
 (= X8 (- (* 527 S2) (* 527 S3)))
 (= X8 (+ (* 527 S2) (* 51 S3)))
 (= X8 (- (* 527 S2) (* 51 S3)))
 (= X8 (- (* 51 S2) (* 527 S3)))
 (= X8 (+ (* 527 S2) (* 95 S3)))
 (= X8 (- (* 527 S2) (* 95 S3)))
 (= X8 (- (* 95 S2) (* 527 S3)))
 (= X8 (+ (* 527 S2) (* X7 S3)))
 (= X8 (- (* 527 S2) (* X7 S3)))
 (= X8 (- (* X7 S2) (* 527 S3)))
 (= X8 (+ (* 51 S2) S3))
 (= X8 (- (* 51 S2) S3))
 (= X8 (- S2 (* 51 S3)))
 (= X8 (+ (* 51 S2) (* 51 S3)))
 (= X8 (- (* 51 S2) (* 51 S3)))
 (= X8 (+ (* 51 S2) (* 95 S3)))
 (= X8 (- (* 51 S2) (* 95 S3)))
 (= X8 (- (* 95 S2) (* 51 S3)))
 (= X8 (+ (* 51 S2) (* X7 S3)))
 (= X8 (- (* 51 S2) (* X7 S3)))
 (= X8 (- (* X7 S2) (* 51 S3)))
 (= X8 (+ (* 95 S2) S3))
 (= X8 (- (* 95 S2) S3))
 (= X8 (- S2 (* 95 S3)))
 (= X8 (+ (* 95 S2) (* 95 S3)))
 (= X8 (- (* 95 S2) (* 95 S3)))
 (= X8 (+ (* 95 S2) (* X7 S3)))
 (= X8 (- (* 95 S2) (* X7 S3)))
 (= X8 (- (* X7 S2) (* 95 S3)))
 (= X8 (+ (* X7 S2) S3))
 (= X8 (- (* X7 S2) S3))
 (= X8 (- S2 (* X7 S3)))
 (= X8 (+ (* X7 S2) (* X7 S3)))
 (= X8 (- (* X7 S2) (* X7 S3)))
))
(assert (and (> X8 0) (< X8 2048) (power2 S2) (power2 S3)))
(assert (or
 (= X9 (+ (* 17 S4) S5))
 (= X9 (- (* 17 S4) S5))
 (= X9 (- S4 (* 17 S5)))
 (= X9 (+ (* 17 S4) (* 17 S5)))
 (= X9 (- (* 17 S4) (* 17 S5)))
 (= X9 (+ (* 17 S4) (* 5 S5)))
 (= X9 (- (* 17 S4) (* 5 S5)))
 (= X9 (- (* 5 S4) (* 17 S5)))
 (= X9 (+ (* 17 S4) (* 1019 S5)))
 (= X9 (- (* 17 S4) (* 1019 S5)))
 (= X9 (- (* 1019 S4) (* 17 S5)))
 (= X9 (+ (* 17 S4) (* 41 S5)))
 (= X9 (- (* 17 S4) (* 41 S5)))
 (= X9 (- (* 41 S4) (* 17 S5)))
 (= X9 (+ (* 17 S4) (* 527 S5)))
 (= X9 (- (* 17 S4) (* 527 S5)))
 (= X9 (- (* 527 S4) (* 17 S5)))
 (= X9 (+ (* 17 S4) (* 51 S5)))
 (= X9 (- (* 17 S4) (* 51 S5)))
 (= X9 (- (* 51 S4) (* 17 S5)))
 (= X9 (+ (* 17 S4) (* 95 S5)))
 (= X9 (- (* 17 S4) (* 95 S5)))
 (= X9 (- (* 95 S4) (* 17 S5)))
 (= X9 (+ (* 17 S4) (* X7 S5)))
 (= X9 (- (* 17 S4) (* X7 S5)))
 (= X9 (- (* X7 S4) (* 17 S5)))
 (= X9 (+ (* 17 S4) (* X8 S5)))
 (= X9 (- (* 17 S4) (* X8 S5)))
 (= X9 (- (* X8 S4) (* 17 S5)))
 (= X9 (+ (* 5 S4) S5))
 (= X9 (- (* 5 S4) S5))
 (= X9 (- S4 (* 5 S5)))
 (= X9 (+ (* 5 S4) (* 5 S5)))
 (= X9 (- (* 5 S4) (* 5 S5)))
 (= X9 (+ (* 5 S4) (* 1019 S5)))
 (= X9 (- (* 5 S4) (* 1019 S5)))
 (= X9 (- (* 1019 S4) (* 5 S5)))
 (= X9 (+ (* 5 S4) (* 41 S5)))
 (= X9 (- (* 5 S4) (* 41 S5)))
 (= X9 (- (* 41 S4) (* 5 S5)))
 (= X9 (+ (* 5 S4) (* 527 S5)))
 (= X9 (- (* 5 S4) (* 527 S5)))
 (= X9 (- (* 527 S4) (* 5 S5)))
 (= X9 (+ (* 5 S4) (* 51 S5)))
 (= X9 (- (* 5 S4) (* 51 S5)))
 (= X9 (- (* 51 S4) (* 5 S5)))
 (= X9 (+ (* 5 S4) (* 95 S5)))
 (= X9 (- (* 5 S4) (* 95 S5)))
 (= X9 (- (* 95 S4) (* 5 S5)))
 (= X9 (+ (* 5 S4) (* X7 S5)))
 (= X9 (- (* 5 S4) (* X7 S5)))
 (= X9 (- (* X7 S4) (* 5 S5)))
 (= X9 (+ (* 5 S4) (* X8 S5)))
 (= X9 (- (* 5 S4) (* X8 S5)))
 (= X9 (- (* X8 S4) (* 5 S5)))
 (= X9 (+ (* 1019 S4) S5))
 (= X9 (- (* 1019 S4) S5))
 (= X9 (- S4 (* 1019 S5)))
 (= X9 (+ (* 1019 S4) (* 1019 S5)))
 (= X9 (- (* 1019 S4) (* 1019 S5)))
 (= X9 (+ (* 1019 S4) (* 41 S5)))
 (= X9 (- (* 1019 S4) (* 41 S5)))
 (= X9 (- (* 41 S4) (* 1019 S5)))
 (= X9 (+ (* 1019 S4) (* 527 S5)))
 (= X9 (- (* 1019 S4) (* 527 S5)))
 (= X9 (- (* 527 S4) (* 1019 S5)))
 (= X9 (+ (* 1019 S4) (* 51 S5)))
 (= X9 (- (* 1019 S4) (* 51 S5)))
 (= X9 (- (* 51 S4) (* 1019 S5)))
 (= X9 (+ (* 1019 S4) (* 95 S5)))
 (= X9 (- (* 1019 S4) (* 95 S5)))
 (= X9 (- (* 95 S4) (* 1019 S5)))
 (= X9 (+ (* 1019 S4) (* X7 S5)))
 (= X9 (- (* 1019 S4) (* X7 S5)))
 (= X9 (- (* X7 S4) (* 1019 S5)))
 (= X9 (+ (* 1019 S4) (* X8 S5)))
 (= X9 (- (* 1019 S4) (* X8 S5)))
 (= X9 (- (* X8 S4) (* 1019 S5)))
 (= X9 (+ (* 41 S4) S5))
 (= X9 (- (* 41 S4) S5))
 (= X9 (- S4 (* 41 S5)))
 (= X9 (+ (* 41 S4) (* 41 S5)))
 (= X9 (- (* 41 S4) (* 41 S5)))
 (= X9 (+ (* 41 S4) (* 527 S5)))
 (= X9 (- (* 41 S4) (* 527 S5)))
 (= X9 (- (* 527 S4) (* 41 S5)))
 (= X9 (+ (* 41 S4) (* 51 S5)))
 (= X9 (- (* 41 S4) (* 51 S5)))
 (= X9 (- (* 51 S4) (* 41 S5)))
 (= X9 (+ (* 41 S4) (* 95 S5)))
 (= X9 (- (* 41 S4) (* 95 S5)))
 (= X9 (- (* 95 S4) (* 41 S5)))
 (= X9 (+ (* 41 S4) (* X7 S5)))
 (= X9 (- (* 41 S4) (* X7 S5)))
 (= X9 (- (* X7 S4) (* 41 S5)))
 (= X9 (+ (* 41 S4) (* X8 S5)))
 (= X9 (- (* 41 S4) (* X8 S5)))
 (= X9 (- (* X8 S4) (* 41 S5)))
 (= X9 (+ (* 527 S4) S5))
 (= X9 (- (* 527 S4) S5))
 (= X9 (- S4 (* 527 S5)))
 (= X9 (+ (* 527 S4) (* 527 S5)))
 (= X9 (- (* 527 S4) (* 527 S5)))
 (= X9 (+ (* 527 S4) (* 51 S5)))
 (= X9 (- (* 527 S4) (* 51 S5)))
 (= X9 (- (* 51 S4) (* 527 S5)))
 (= X9 (+ (* 527 S4) (* 95 S5)))
 (= X9 (- (* 527 S4) (* 95 S5)))
 (= X9 (- (* 95 S4) (* 527 S5)))
 (= X9 (+ (* 527 S4) (* X7 S5)))
 (= X9 (- (* 527 S4) (* X7 S5)))
 (= X9 (- (* X7 S4) (* 527 S5)))
 (= X9 (+ (* 527 S4) (* X8 S5)))
 (= X9 (- (* 527 S4) (* X8 S5)))
 (= X9 (- (* X8 S4) (* 527 S5)))
 (= X9 (+ (* 51 S4) S5))
 (= X9 (- (* 51 S4) S5))
 (= X9 (- S4 (* 51 S5)))
 (= X9 (+ (* 51 S4) (* 51 S5)))
 (= X9 (- (* 51 S4) (* 51 S5)))
 (= X9 (+ (* 51 S4) (* 95 S5)))
 (= X9 (- (* 51 S4) (* 95 S5)))
 (= X9 (- (* 95 S4) (* 51 S5)))
 (= X9 (+ (* 51 S4) (* X7 S5)))
 (= X9 (- (* 51 S4) (* X7 S5)))
 (= X9 (- (* X7 S4) (* 51 S5)))
 (= X9 (+ (* 51 S4) (* X8 S5)))
 (= X9 (- (* 51 S4) (* X8 S5)))
 (= X9 (- (* X8 S4) (* 51 S5)))
 (= X9 (+ (* 95 S4) S5))
 (= X9 (- (* 95 S4) S5))
 (= X9 (- S4 (* 95 S5)))
 (= X9 (+ (* 95 S4) (* 95 S5)))
 (= X9 (- (* 95 S4) (* 95 S5)))
 (= X9 (+ (* 95 S4) (* X7 S5)))
 (= X9 (- (* 95 S4) (* X7 S5)))
 (= X9 (- (* X7 S4) (* 95 S5)))
 (= X9 (+ (* 95 S4) (* X8 S5)))
 (= X9 (- (* 95 S4) (* X8 S5)))
 (= X9 (- (* X8 S4) (* 95 S5)))
 (= X9 (+ (* X7 S4) S5))
 (= X9 (- (* X7 S4) S5))
 (= X9 (- S4 (* X7 S5)))
 (= X9 (+ (* X7 S4) (* X7 S5)))
 (= X9 (- (* X7 S4) (* X7 S5)))
 (= X9 (+ (* X7 S4) (* X8 S5)))
 (= X9 (- (* X7 S4) (* X8 S5)))
 (= X9 (- (* X8 S4) (* X7 S5)))
 (= X9 (+ (* X8 S4) S5))
 (= X9 (- (* X8 S4) S5))
 (= X9 (- S4 (* X8 S5)))
 (= X9 (+ (* X8 S4) (* X8 S5)))
 (= X9 (- (* X8 S4) (* X8 S5)))
))
(assert (and (> X9 0) (< X9 2048) (power2 S4) (power2 S5)))
(assert (or
 (= X10 (+ (* 17 S6) S7))
 (= X10 (- (* 17 S6) S7))
 (= X10 (- S6 (* 17 S7)))
 (= X10 (+ (* 17 S6) (* 17 S7)))
 (= X10 (- (* 17 S6) (* 17 S7)))
 (= X10 (+ (* 17 S6) (* 5 S7)))
 (= X10 (- (* 17 S6) (* 5 S7)))
 (= X10 (- (* 5 S6) (* 17 S7)))
 (= X10 (+ (* 17 S6) (* 1019 S7)))
 (= X10 (- (* 17 S6) (* 1019 S7)))
 (= X10 (- (* 1019 S6) (* 17 S7)))
 (= X10 (+ (* 17 S6) (* 41 S7)))
 (= X10 (- (* 17 S6) (* 41 S7)))
 (= X10 (- (* 41 S6) (* 17 S7)))
 (= X10 (+ (* 17 S6) (* 527 S7)))
 (= X10 (- (* 17 S6) (* 527 S7)))
 (= X10 (- (* 527 S6) (* 17 S7)))
 (= X10 (+ (* 17 S6) (* 51 S7)))
 (= X10 (- (* 17 S6) (* 51 S7)))
 (= X10 (- (* 51 S6) (* 17 S7)))
 (= X10 (+ (* 17 S6) (* 95 S7)))
 (= X10 (- (* 17 S6) (* 95 S7)))
 (= X10 (- (* 95 S6) (* 17 S7)))
 (= X10 (+ (* 17 S6) (* X7 S7)))
 (= X10 (- (* 17 S6) (* X7 S7)))
 (= X10 (- (* X7 S6) (* 17 S7)))
 (= X10 (+ (* 17 S6) (* X8 S7)))
 (= X10 (- (* 17 S6) (* X8 S7)))
 (= X10 (- (* X8 S6) (* 17 S7)))
 (= X10 (+ (* 17 S6) (* X9 S7)))
 (= X10 (- (* 17 S6) (* X9 S7)))
 (= X10 (- (* X9 S6) (* 17 S7)))
 (= X10 (+ (* 5 S6) S7))
 (= X10 (- (* 5 S6) S7))
 (= X10 (- S6 (* 5 S7)))
 (= X10 (+ (* 5 S6) (* 5 S7)))
 (= X10 (- (* 5 S6) (* 5 S7)))
 (= X10 (+ (* 5 S6) (* 1019 S7)))
 (= X10 (- (* 5 S6) (* 1019 S7)))
 (= X10 (- (* 1019 S6) (* 5 S7)))
 (= X10 (+ (* 5 S6) (* 41 S7)))
 (= X10 (- (* 5 S6) (* 41 S7)))
 (= X10 (- (* 41 S6) (* 5 S7)))
 (= X10 (+ (* 5 S6) (* 527 S7)))
 (= X10 (- (* 5 S6) (* 527 S7)))
 (= X10 (- (* 527 S6) (* 5 S7)))
 (= X10 (+ (* 5 S6) (* 51 S7)))
 (= X10 (- (* 5 S6) (* 51 S7)))
 (= X10 (- (* 51 S6) (* 5 S7)))
 (= X10 (+ (* 5 S6) (* 95 S7)))
 (= X10 (- (* 5 S6) (* 95 S7)))
 (= X10 (- (* 95 S6) (* 5 S7)))
 (= X10 (+ (* 5 S6) (* X7 S7)))
 (= X10 (- (* 5 S6) (* X7 S7)))
 (= X10 (- (* X7 S6) (* 5 S7)))
 (= X10 (+ (* 5 S6) (* X8 S7)))
 (= X10 (- (* 5 S6) (* X8 S7)))
 (= X10 (- (* X8 S6) (* 5 S7)))
 (= X10 (+ (* 5 S6) (* X9 S7)))
 (= X10 (- (* 5 S6) (* X9 S7)))
 (= X10 (- (* X9 S6) (* 5 S7)))
 (= X10 (+ (* 1019 S6) S7))
 (= X10 (- (* 1019 S6) S7))
 (= X10 (- S6 (* 1019 S7)))
 (= X10 (+ (* 1019 S6) (* 1019 S7)))
 (= X10 (- (* 1019 S6) (* 1019 S7)))
 (= X10 (+ (* 1019 S6) (* 41 S7)))
 (= X10 (- (* 1019 S6) (* 41 S7)))
 (= X10 (- (* 41 S6) (* 1019 S7)))
 (= X10 (+ (* 1019 S6) (* 527 S7)))
 (= X10 (- (* 1019 S6) (* 527 S7)))
 (= X10 (- (* 527 S6) (* 1019 S7)))
 (= X10 (+ (* 1019 S6) (* 51 S7)))
 (= X10 (- (* 1019 S6) (* 51 S7)))
 (= X10 (- (* 51 S6) (* 1019 S7)))
 (= X10 (+ (* 1019 S6) (* 95 S7)))
 (= X10 (- (* 1019 S6) (* 95 S7)))
 (= X10 (- (* 95 S6) (* 1019 S7)))
 (= X10 (+ (* 1019 S6) (* X7 S7)))
 (= X10 (- (* 1019 S6) (* X7 S7)))
 (= X10 (- (* X7 S6) (* 1019 S7)))
 (= X10 (+ (* 1019 S6) (* X8 S7)))
 (= X10 (- (* 1019 S6) (* X8 S7)))
 (= X10 (- (* X8 S6) (* 1019 S7)))
 (= X10 (+ (* 1019 S6) (* X9 S7)))
 (= X10 (- (* 1019 S6) (* X9 S7)))
 (= X10 (- (* X9 S6) (* 1019 S7)))
 (= X10 (+ (* 41 S6) S7))
 (= X10 (- (* 41 S6) S7))
 (= X10 (- S6 (* 41 S7)))
 (= X10 (+ (* 41 S6) (* 41 S7)))
 (= X10 (- (* 41 S6) (* 41 S7)))
 (= X10 (+ (* 41 S6) (* 527 S7)))
 (= X10 (- (* 41 S6) (* 527 S7)))
 (= X10 (- (* 527 S6) (* 41 S7)))
 (= X10 (+ (* 41 S6) (* 51 S7)))
 (= X10 (- (* 41 S6) (* 51 S7)))
 (= X10 (- (* 51 S6) (* 41 S7)))
 (= X10 (+ (* 41 S6) (* 95 S7)))
 (= X10 (- (* 41 S6) (* 95 S7)))
 (= X10 (- (* 95 S6) (* 41 S7)))
 (= X10 (+ (* 41 S6) (* X7 S7)))
 (= X10 (- (* 41 S6) (* X7 S7)))
 (= X10 (- (* X7 S6) (* 41 S7)))
 (= X10 (+ (* 41 S6) (* X8 S7)))
 (= X10 (- (* 41 S6) (* X8 S7)))
 (= X10 (- (* X8 S6) (* 41 S7)))
 (= X10 (+ (* 41 S6) (* X9 S7)))
 (= X10 (- (* 41 S6) (* X9 S7)))
 (= X10 (- (* X9 S6) (* 41 S7)))
 (= X10 (+ (* 527 S6) S7))
 (= X10 (- (* 527 S6) S7))
 (= X10 (- S6 (* 527 S7)))
 (= X10 (+ (* 527 S6) (* 527 S7)))
 (= X10 (- (* 527 S6) (* 527 S7)))
 (= X10 (+ (* 527 S6) (* 51 S7)))
 (= X10 (- (* 527 S6) (* 51 S7)))
 (= X10 (- (* 51 S6) (* 527 S7)))
 (= X10 (+ (* 527 S6) (* 95 S7)))
 (= X10 (- (* 527 S6) (* 95 S7)))
 (= X10 (- (* 95 S6) (* 527 S7)))
 (= X10 (+ (* 527 S6) (* X7 S7)))
 (= X10 (- (* 527 S6) (* X7 S7)))
 (= X10 (- (* X7 S6) (* 527 S7)))
 (= X10 (+ (* 527 S6) (* X8 S7)))
 (= X10 (- (* 527 S6) (* X8 S7)))
 (= X10 (- (* X8 S6) (* 527 S7)))
 (= X10 (+ (* 527 S6) (* X9 S7)))
 (= X10 (- (* 527 S6) (* X9 S7)))
 (= X10 (- (* X9 S6) (* 527 S7)))
 (= X10 (+ (* 51 S6) S7))
 (= X10 (- (* 51 S6) S7))
 (= X10 (- S6 (* 51 S7)))
 (= X10 (+ (* 51 S6) (* 51 S7)))
 (= X10 (- (* 51 S6) (* 51 S7)))
 (= X10 (+ (* 51 S6) (* 95 S7)))
 (= X10 (- (* 51 S6) (* 95 S7)))
 (= X10 (- (* 95 S6) (* 51 S7)))
 (= X10 (+ (* 51 S6) (* X7 S7)))
 (= X10 (- (* 51 S6) (* X7 S7)))
 (= X10 (- (* X7 S6) (* 51 S7)))
 (= X10 (+ (* 51 S6) (* X8 S7)))
 (= X10 (- (* 51 S6) (* X8 S7)))
 (= X10 (- (* X8 S6) (* 51 S7)))
 (= X10 (+ (* 51 S6) (* X9 S7)))
 (= X10 (- (* 51 S6) (* X9 S7)))
 (= X10 (- (* X9 S6) (* 51 S7)))
 (= X10 (+ (* 95 S6) S7))
 (= X10 (- (* 95 S6) S7))
 (= X10 (- S6 (* 95 S7)))
 (= X10 (+ (* 95 S6) (* 95 S7)))
 (= X10 (- (* 95 S6) (* 95 S7)))
 (= X10 (+ (* 95 S6) (* X7 S7)))
 (= X10 (- (* 95 S6) (* X7 S7)))
 (= X10 (- (* X7 S6) (* 95 S7)))
 (= X10 (+ (* 95 S6) (* X8 S7)))
 (= X10 (- (* 95 S6) (* X8 S7)))
 (= X10 (- (* X8 S6) (* 95 S7)))
 (= X10 (+ (* 95 S6) (* X9 S7)))
 (= X10 (- (* 95 S6) (* X9 S7)))
 (= X10 (- (* X9 S6) (* 95 S7)))
 (= X10 (+ (* X7 S6) S7))
 (= X10 (- (* X7 S6) S7))
 (= X10 (- S6 (* X7 S7)))
 (= X10 (+ (* X7 S6) (* X7 S7)))
 (= X10 (- (* X7 S6) (* X7 S7)))
 (= X10 (+ (* X7 S6) (* X8 S7)))
 (= X10 (- (* X7 S6) (* X8 S7)))
 (= X10 (- (* X8 S6) (* X7 S7)))
 (= X10 (+ (* X7 S6) (* X9 S7)))
 (= X10 (- (* X7 S6) (* X9 S7)))
 (= X10 (- (* X9 S6) (* X7 S7)))
 (= X10 (+ (* X8 S6) S7))
 (= X10 (- (* X8 S6) S7))
 (= X10 (- S6 (* X8 S7)))
 (= X10 (+ (* X8 S6) (* X8 S7)))
 (= X10 (- (* X8 S6) (* X8 S7)))
 (= X10 (+ (* X8 S6) (* X9 S7)))
 (= X10 (- (* X8 S6) (* X9 S7)))
 (= X10 (- (* X9 S6) (* X8 S7)))
 (= X10 (+ (* X9 S6) S7))
 (= X10 (- (* X9 S6) S7))
 (= X10 (- S6 (* X9 S7)))
 (= X10 (+ (* X9 S6) (* X9 S7)))
 (= X10 (- (* X9 S6) (* X9 S7)))
))
(assert (and (> X10 0) (< X10 2048) (power2 S6) (power2 S7)))
(assert (or
 (= X11 (+ (* 17 S8) S9))
 (= X11 (- (* 17 S8) S9))
 (= X11 (- S8 (* 17 S9)))
 (= X11 (+ (* 17 S8) (* 17 S9)))
 (= X11 (- (* 17 S8) (* 17 S9)))
 (= X11 (+ (* 17 S8) (* 5 S9)))
 (= X11 (- (* 17 S8) (* 5 S9)))
 (= X11 (- (* 5 S8) (* 17 S9)))
 (= X11 (+ (* 17 S8) (* 1019 S9)))
 (= X11 (- (* 17 S8) (* 1019 S9)))
 (= X11 (- (* 1019 S8) (* 17 S9)))
 (= X11 (+ (* 17 S8) (* 41 S9)))
 (= X11 (- (* 17 S8) (* 41 S9)))
 (= X11 (- (* 41 S8) (* 17 S9)))
 (= X11 (+ (* 17 S8) (* 527 S9)))
 (= X11 (- (* 17 S8) (* 527 S9)))
 (= X11 (- (* 527 S8) (* 17 S9)))
 (= X11 (+ (* 17 S8) (* 51 S9)))
 (= X11 (- (* 17 S8) (* 51 S9)))
 (= X11 (- (* 51 S8) (* 17 S9)))
 (= X11 (+ (* 17 S8) (* 95 S9)))
 (= X11 (- (* 17 S8) (* 95 S9)))
 (= X11 (- (* 95 S8) (* 17 S9)))
 (= X11 (+ (* 17 S8) (* X7 S9)))
 (= X11 (- (* 17 S8) (* X7 S9)))
 (= X11 (- (* X7 S8) (* 17 S9)))
 (= X11 (+ (* 17 S8) (* X8 S9)))
 (= X11 (- (* 17 S8) (* X8 S9)))
 (= X11 (- (* X8 S8) (* 17 S9)))
 (= X11 (+ (* 17 S8) (* X9 S9)))
 (= X11 (- (* 17 S8) (* X9 S9)))
 (= X11 (- (* X9 S8) (* 17 S9)))
 (= X11 (+ (* 17 S8) (* X10 S9)))
 (= X11 (- (* 17 S8) (* X10 S9)))
 (= X11 (- (* X10 S8) (* 17 S9)))
 (= X11 (+ (* 5 S8) S9))
 (= X11 (- (* 5 S8) S9))
 (= X11 (- S8 (* 5 S9)))
 (= X11 (+ (* 5 S8) (* 5 S9)))
 (= X11 (- (* 5 S8) (* 5 S9)))
 (= X11 (+ (* 5 S8) (* 1019 S9)))
 (= X11 (- (* 5 S8) (* 1019 S9)))
 (= X11 (- (* 1019 S8) (* 5 S9)))
 (= X11 (+ (* 5 S8) (* 41 S9)))
 (= X11 (- (* 5 S8) (* 41 S9)))
 (= X11 (- (* 41 S8) (* 5 S9)))
 (= X11 (+ (* 5 S8) (* 527 S9)))
 (= X11 (- (* 5 S8) (* 527 S9)))
 (= X11 (- (* 527 S8) (* 5 S9)))
 (= X11 (+ (* 5 S8) (* 51 S9)))
 (= X11 (- (* 5 S8) (* 51 S9)))
 (= X11 (- (* 51 S8) (* 5 S9)))
 (= X11 (+ (* 5 S8) (* 95 S9)))
 (= X11 (- (* 5 S8) (* 95 S9)))
 (= X11 (- (* 95 S8) (* 5 S9)))
 (= X11 (+ (* 5 S8) (* X7 S9)))
 (= X11 (- (* 5 S8) (* X7 S9)))
 (= X11 (- (* X7 S8) (* 5 S9)))
 (= X11 (+ (* 5 S8) (* X8 S9)))
 (= X11 (- (* 5 S8) (* X8 S9)))
 (= X11 (- (* X8 S8) (* 5 S9)))
 (= X11 (+ (* 5 S8) (* X9 S9)))
 (= X11 (- (* 5 S8) (* X9 S9)))
 (= X11 (- (* X9 S8) (* 5 S9)))
 (= X11 (+ (* 5 S8) (* X10 S9)))
 (= X11 (- (* 5 S8) (* X10 S9)))
 (= X11 (- (* X10 S8) (* 5 S9)))
 (= X11 (+ (* 1019 S8) S9))
 (= X11 (- (* 1019 S8) S9))
 (= X11 (- S8 (* 1019 S9)))
 (= X11 (+ (* 1019 S8) (* 1019 S9)))
 (= X11 (- (* 1019 S8) (* 1019 S9)))
 (= X11 (+ (* 1019 S8) (* 41 S9)))
 (= X11 (- (* 1019 S8) (* 41 S9)))
 (= X11 (- (* 41 S8) (* 1019 S9)))
 (= X11 (+ (* 1019 S8) (* 527 S9)))
 (= X11 (- (* 1019 S8) (* 527 S9)))
 (= X11 (- (* 527 S8) (* 1019 S9)))
 (= X11 (+ (* 1019 S8) (* 51 S9)))
 (= X11 (- (* 1019 S8) (* 51 S9)))
 (= X11 (- (* 51 S8) (* 1019 S9)))
 (= X11 (+ (* 1019 S8) (* 95 S9)))
 (= X11 (- (* 1019 S8) (* 95 S9)))
 (= X11 (- (* 95 S8) (* 1019 S9)))
 (= X11 (+ (* 1019 S8) (* X7 S9)))
 (= X11 (- (* 1019 S8) (* X7 S9)))
 (= X11 (- (* X7 S8) (* 1019 S9)))
 (= X11 (+ (* 1019 S8) (* X8 S9)))
 (= X11 (- (* 1019 S8) (* X8 S9)))
 (= X11 (- (* X8 S8) (* 1019 S9)))
 (= X11 (+ (* 1019 S8) (* X9 S9)))
 (= X11 (- (* 1019 S8) (* X9 S9)))
 (= X11 (- (* X9 S8) (* 1019 S9)))
 (= X11 (+ (* 1019 S8) (* X10 S9)))
 (= X11 (- (* 1019 S8) (* X10 S9)))
 (= X11 (- (* X10 S8) (* 1019 S9)))
 (= X11 (+ (* 41 S8) S9))
 (= X11 (- (* 41 S8) S9))
 (= X11 (- S8 (* 41 S9)))
 (= X11 (+ (* 41 S8) (* 41 S9)))
 (= X11 (- (* 41 S8) (* 41 S9)))
 (= X11 (+ (* 41 S8) (* 527 S9)))
 (= X11 (- (* 41 S8) (* 527 S9)))
 (= X11 (- (* 527 S8) (* 41 S9)))
 (= X11 (+ (* 41 S8) (* 51 S9)))
 (= X11 (- (* 41 S8) (* 51 S9)))
 (= X11 (- (* 51 S8) (* 41 S9)))
 (= X11 (+ (* 41 S8) (* 95 S9)))
 (= X11 (- (* 41 S8) (* 95 S9)))
 (= X11 (- (* 95 S8) (* 41 S9)))
 (= X11 (+ (* 41 S8) (* X7 S9)))
 (= X11 (- (* 41 S8) (* X7 S9)))
 (= X11 (- (* X7 S8) (* 41 S9)))
 (= X11 (+ (* 41 S8) (* X8 S9)))
 (= X11 (- (* 41 S8) (* X8 S9)))
 (= X11 (- (* X8 S8) (* 41 S9)))
 (= X11 (+ (* 41 S8) (* X9 S9)))
 (= X11 (- (* 41 S8) (* X9 S9)))
 (= X11 (- (* X9 S8) (* 41 S9)))
 (= X11 (+ (* 41 S8) (* X10 S9)))
 (= X11 (- (* 41 S8) (* X10 S9)))
 (= X11 (- (* X10 S8) (* 41 S9)))
 (= X11 (+ (* 527 S8) S9))
 (= X11 (- (* 527 S8) S9))
 (= X11 (- S8 (* 527 S9)))
 (= X11 (+ (* 527 S8) (* 527 S9)))
 (= X11 (- (* 527 S8) (* 527 S9)))
 (= X11 (+ (* 527 S8) (* 51 S9)))
 (= X11 (- (* 527 S8) (* 51 S9)))
 (= X11 (- (* 51 S8) (* 527 S9)))
 (= X11 (+ (* 527 S8) (* 95 S9)))
 (= X11 (- (* 527 S8) (* 95 S9)))
 (= X11 (- (* 95 S8) (* 527 S9)))
 (= X11 (+ (* 527 S8) (* X7 S9)))
 (= X11 (- (* 527 S8) (* X7 S9)))
 (= X11 (- (* X7 S8) (* 527 S9)))
 (= X11 (+ (* 527 S8) (* X8 S9)))
 (= X11 (- (* 527 S8) (* X8 S9)))
 (= X11 (- (* X8 S8) (* 527 S9)))
 (= X11 (+ (* 527 S8) (* X9 S9)))
 (= X11 (- (* 527 S8) (* X9 S9)))
 (= X11 (- (* X9 S8) (* 527 S9)))
 (= X11 (+ (* 527 S8) (* X10 S9)))
 (= X11 (- (* 527 S8) (* X10 S9)))
 (= X11 (- (* X10 S8) (* 527 S9)))
 (= X11 (+ (* 51 S8) S9))
 (= X11 (- (* 51 S8) S9))
 (= X11 (- S8 (* 51 S9)))
 (= X11 (+ (* 51 S8) (* 51 S9)))
 (= X11 (- (* 51 S8) (* 51 S9)))
 (= X11 (+ (* 51 S8) (* 95 S9)))
 (= X11 (- (* 51 S8) (* 95 S9)))
 (= X11 (- (* 95 S8) (* 51 S9)))
 (= X11 (+ (* 51 S8) (* X7 S9)))
 (= X11 (- (* 51 S8) (* X7 S9)))
 (= X11 (- (* X7 S8) (* 51 S9)))
 (= X11 (+ (* 51 S8) (* X8 S9)))
 (= X11 (- (* 51 S8) (* X8 S9)))
 (= X11 (- (* X8 S8) (* 51 S9)))
 (= X11 (+ (* 51 S8) (* X9 S9)))
 (= X11 (- (* 51 S8) (* X9 S9)))
 (= X11 (- (* X9 S8) (* 51 S9)))
 (= X11 (+ (* 51 S8) (* X10 S9)))
 (= X11 (- (* 51 S8) (* X10 S9)))
 (= X11 (- (* X10 S8) (* 51 S9)))
 (= X11 (+ (* 95 S8) S9))
 (= X11 (- (* 95 S8) S9))
 (= X11 (- S8 (* 95 S9)))
 (= X11 (+ (* 95 S8) (* 95 S9)))
 (= X11 (- (* 95 S8) (* 95 S9)))
 (= X11 (+ (* 95 S8) (* X7 S9)))
 (= X11 (- (* 95 S8) (* X7 S9)))
 (= X11 (- (* X7 S8) (* 95 S9)))
 (= X11 (+ (* 95 S8) (* X8 S9)))
 (= X11 (- (* 95 S8) (* X8 S9)))
 (= X11 (- (* X8 S8) (* 95 S9)))
 (= X11 (+ (* 95 S8) (* X9 S9)))
 (= X11 (- (* 95 S8) (* X9 S9)))
 (= X11 (- (* X9 S8) (* 95 S9)))
 (= X11 (+ (* 95 S8) (* X10 S9)))
 (= X11 (- (* 95 S8) (* X10 S9)))
 (= X11 (- (* X10 S8) (* 95 S9)))
 (= X11 (+ (* X7 S8) S9))
 (= X11 (- (* X7 S8) S9))
 (= X11 (- S8 (* X7 S9)))
 (= X11 (+ (* X7 S8) (* X7 S9)))
 (= X11 (- (* X7 S8) (* X7 S9)))
 (= X11 (+ (* X7 S8) (* X8 S9)))
 (= X11 (- (* X7 S8) (* X8 S9)))
 (= X11 (- (* X8 S8) (* X7 S9)))
 (= X11 (+ (* X7 S8) (* X9 S9)))
 (= X11 (- (* X7 S8) (* X9 S9)))
 (= X11 (- (* X9 S8) (* X7 S9)))
 (= X11 (+ (* X7 S8) (* X10 S9)))
 (= X11 (- (* X7 S8) (* X10 S9)))
 (= X11 (- (* X10 S8) (* X7 S9)))
 (= X11 (+ (* X8 S8) S9))
 (= X11 (- (* X8 S8) S9))
 (= X11 (- S8 (* X8 S9)))
 (= X11 (+ (* X8 S8) (* X8 S9)))
 (= X11 (- (* X8 S8) (* X8 S9)))
 (= X11 (+ (* X8 S8) (* X9 S9)))
 (= X11 (- (* X8 S8) (* X9 S9)))
 (= X11 (- (* X9 S8) (* X8 S9)))
 (= X11 (+ (* X8 S8) (* X10 S9)))
 (= X11 (- (* X8 S8) (* X10 S9)))
 (= X11 (- (* X10 S8) (* X8 S9)))
 (= X11 (+ (* X9 S8) S9))
 (= X11 (- (* X9 S8) S9))
 (= X11 (- S8 (* X9 S9)))
 (= X11 (+ (* X9 S8) (* X9 S9)))
 (= X11 (- (* X9 S8) (* X9 S9)))
 (= X11 (+ (* X9 S8) (* X10 S9)))
 (= X11 (- (* X9 S8) (* X10 S9)))
 (= X11 (- (* X10 S8) (* X9 S9)))
 (= X11 (+ (* X10 S8) S9))
 (= X11 (- (* X10 S8) S9))
 (= X11 (- S8 (* X10 S9)))
 (= X11 (+ (* X10 S8) (* X10 S9)))
 (= X11 (- (* X10 S8) (* X10 S9)))
))
(assert (and (> X11 0) (< X11 2048) (power2 S8) (power2 S9)))
(assert (or
 (= X8 739)
 (= X9 739)
 (= X10 739)
 (= X11 739)
))
(assert (or
 (= X8 991)
 (= X9 991)
 (= X10 991)
 (= X11 991)
))
(assert (or
 (= X8 905)
 (= X9 905)
 (= X10 905)
 (= X11 905)
))
(check-sat)
(exit)
